\Problem name: compact

Minimize
OBJROW: C
Subject To
ord(0,1):  x(0,1) - x(0,2) >= 9
ord(0,2):  x(0,0) - x(0,1) >= 8
ord(1,1):  - x(1,0) + x(1,2) >= 1
ord(1,2):  x(1,1) - x(1,2) >= 9
ord(2,1):  - x(2,0) + x(2,2) >= 10
ord(2,2):  x(2,1) - x(2,2) >= 4
triangle2(0,1,0):  y(0,1,0) + y(1,0,0) = 1
triangle2(0,1,1):  y(0,1,1) + y(1,0,1) = 1
triangle2(0,1,2):  y(0,1,2) + y(1,0,2) = 1
triangle2(0,2,0):  y(0,2,0) + y(2,0,0) = 1
triangle2(0,2,1):  y(0,2,1) + y(2,0,1) = 1
triangle2(0,2,2):  y(0,2,2) + y(2,0,2) = 1
triangle2(1,2,0):  y(1,2,0) + y(2,1,0) = 1
triangle2(1,2,1):  y(1,2,1) + y(2,1,1) = 1
triangle2(1,2,2):  y(1,2,2) + y(2,1,2) = 1
MCLinV(0,1,0):  x(0,0) - v(0,1,0) - x(1,0) = 1
MCLinV(1,0,0):  - x(0,0) - v(1,0,0) + x(1,0) = 4
MCLin1(0,1,0):  u(0,1,0) >= -0
MCLin2(0,1,0):  -25 y(1,0,0) - u(0,1,0) <= -0
MCLin3(0,1,0):  49 y(1,0,0) + v(0,1,0) - u(0,1,0) <= 49
MCLin4(0,1,0):  49 y(1,0,0) - u(0,1,0) >= -0
MCLin5(0,1,0):  -25 y(1,0,0) + v(0,1,0) - u(0,1,0) >= -25
MCLin6(1,0,0):  u(1,0,0) >= -0
MCLin7(1,0,0):  -54 y(0,1,0) - u(1,0,0) <= -0
MCLin8(1,0,0):  20 y(0,1,0) + v(1,0,0) - u(1,0,0) <= 20
MCLin9(1,0,0):  20 y(0,1,0) - u(1,0,0) >= -0
MCLin10(1,0,0):  -54 y(0,1,0) + v(1,0,0) - u(1,0,0) >= -54
MCLinV(0,1,1):  x(0,1) - v(0,1,1) - x(1,1) = 3
MCLinV(1,0,1):  - x(0,1) - v(1,0,1) + x(1,1) = 8
MCLin1(0,1,1):  u(0,1,1) >= -0
MCLin2(0,1,1):  -45 y(1,0,1) - u(0,1,1) <= -0
MCLin3(0,1,1):  29 y(1,0,1) + v(0,1,1) - u(0,1,1) <= 29
MCLin4(0,1,1):  29 y(1,0,1) - u(0,1,1) >= -0
MCLin5(0,1,1):  -45 y(1,0,1) + v(0,1,1) - u(0,1,1) >= -45
MCLin6(1,0,1):  u(1,0,1) >= -0
MCLin7(1,0,1):  -40 y(0,1,1) - u(1,0,1) <= -0
MCLin8(1,0,1):  34 y(0,1,1) + v(1,0,1) - u(1,0,1) <= 34
MCLin9(1,0,1):  34 y(0,1,1) - u(1,0,1) >= -0
MCLin10(1,0,1):  -40 y(0,1,1) + v(1,0,1) - u(1,0,1) >= -40
MCLinV(0,1,2):  x(0,2) - v(0,1,2) - x(1,2) = 9
MCLinV(1,0,2):  - x(0,2) - v(1,0,2) + x(1,2) = 9
MCLin1(0,1,2):  u(0,1,2) >= -0
MCLin2(0,1,2):  -51 y(1,0,2) - u(0,1,2) <= -0
MCLin3(0,1,2):  23 y(1,0,2) + v(0,1,2) - u(0,1,2) <= 23
MCLin4(0,1,2):  23 y(1,0,2) - u(0,1,2) >= -0
MCLin5(0,1,2):  -51 y(1,0,2) + v(0,1,2) - u(0,1,2) >= -51
MCLin6(1,0,2):  u(1,0,2) >= -0
MCLin7(1,0,2):  -41 y(0,1,2) - u(1,0,2) <= -0
MCLin8(1,0,2):  33 y(0,1,2) + v(1,0,2) - u(1,0,2) <= 33
MCLin9(1,0,2):  33 y(0,1,2) - u(1,0,2) >= -0
MCLin10(1,0,2):  -41 y(0,1,2) + v(1,0,2) - u(1,0,2) >= -41
MCLinV(0,2,0):  x(0,0) - v(0,2,0) - x(2,0) = 10
MCLinV(2,0,0):  - x(0,0) - v(2,0,0) + x(2,0) = 4
MCLin1(0,2,0):  u(0,2,0) >= -0
MCLin2(0,2,0):  -27 y(2,0,0) - u(0,2,0) <= -0
MCLin3(0,2,0):  40 y(2,0,0) + v(0,2,0) - u(0,2,0) <= 40
MCLin4(0,2,0):  40 y(2,0,0) - u(0,2,0) >= -0
MCLin5(0,2,0):  -27 y(2,0,0) + v(0,2,0) - u(0,2,0) >= -27
MCLin6(2,0,0):  u(2,0,0) >= -0
MCLin7(2,0,0):  -54 y(0,2,0) - u(2,0,0) <= -0
MCLin8(2,0,0):  13 y(0,2,0) + v(2,0,0) - u(2,0,0) <= 13
MCLin9(2,0,0):  13 y(0,2,0) - u(2,0,0) >= -0
MCLin10(2,0,0):  -54 y(0,2,0) + v(2,0,0) - u(2,0,0) >= -54
MCLinV(0,2,1):  x(0,1) - v(0,2,1) - x(2,1) = 6
MCLinV(2,0,1):  - x(0,1) - v(2,0,1) + x(2,1) = 8
MCLin1(0,2,1):  u(0,2,1) >= -0
MCLin2(0,2,1):  -45 y(2,0,1) - u(0,2,1) <= -0
MCLin3(0,2,1):  22 y(2,0,1) + v(0,2,1) - u(0,2,1) <= 22
MCLin4(0,2,1):  22 y(2,0,1) - u(0,2,1) >= -0
MCLin5(0,2,1):  -45 y(2,0,1) + v(0,2,1) - u(0,2,1) >= -45
MCLin6(2,0,1):  u(2,0,1) >= -0
MCLin7(2,0,1):  -36 y(0,2,1) - u(2,0,1) <= -0
MCLin8(2,0,1):  31 y(0,2,1) + v(2,0,1) - u(2,0,1) <= 31
MCLin9(2,0,1):  31 y(0,2,1) - u(2,0,1) >= -0
MCLin10(2,0,1):  -36 y(0,2,1) + v(2,0,1) - u(2,0,1) >= -36
MCLinV(0,2,2):  x(0,2) - v(0,2,2) - x(2,2) = 4
MCLinV(2,0,2):  - x(0,2) - v(2,0,2) + x(2,2) = 9
MCLin1(0,2,2):  u(0,2,2) >= -0
MCLin2(0,2,2):  -48 y(2,0,2) - u(0,2,2) <= -0
MCLin3(0,2,2):  19 y(2,0,2) + v(0,2,2) - u(0,2,2) <= 19
MCLin4(0,2,2):  19 y(2,0,2) - u(0,2,2) >= -0
MCLin5(0,2,2):  -48 y(2,0,2) + v(0,2,2) - u(0,2,2) >= -48
MCLin6(2,0,2):  u(2,0,2) >= -0
MCLin7(2,0,2):  -32 y(0,2,2) - u(2,0,2) <= -0
MCLin8(2,0,2):  35 y(0,2,2) + v(2,0,2) - u(2,0,2) <= 35
MCLin9(2,0,2):  35 y(0,2,2) - u(2,0,2) >= -0
MCLin10(2,0,2):  -32 y(0,2,2) + v(2,0,2) - u(2,0,2) >= -32
MCLinV(1,2,0):  x(1,0) - v(1,2,0) - x(2,0) = 10
MCLinV(2,1,0):  - x(1,0) - v(2,1,0) + x(2,0) = 1
MCLin1(1,2,0):  u(1,2,0) >= -0
MCLin2(1,2,0):  -44 y(2,1,0) - u(1,2,0) <= -0
MCLin3(1,2,0):  31 y(2,1,0) + v(1,2,0) - u(1,2,0) <= 31
MCLin4(1,2,0):  31 y(2,1,0) - u(1,2,0) >= -0
MCLin5(1,2,0):  -44 y(2,1,0) + v(1,2,0) - u(1,2,0) >= -44
MCLin6(2,1,0):  u(2,1,0) >= -0
MCLin7(2,1,0):  -42 y(1,2,0) - u(2,1,0) <= -0
MCLin8(2,1,0):  33 y(1,2,0) + v(2,1,0) - u(2,1,0) <= 33
MCLin9(2,1,0):  33 y(1,2,0) - u(2,1,0) >= -0
MCLin10(2,1,0):  -42 y(1,2,0) + v(2,1,0) - u(2,1,0) >= -42
MCLinV(1,2,1):  x(1,1) - v(1,2,1) - x(2,1) = 6
MCLinV(2,1,1):  - x(1,1) - v(2,1,1) + x(2,1) = 3
MCLin1(1,2,1):  u(1,2,1) >= -0
MCLin2(1,2,1):  -44 y(2,1,1) - u(1,2,1) <= -0
MCLin3(1,2,1):  31 y(2,1,1) + v(1,2,1) - u(1,2,1) <= 31
MCLin4(1,2,1):  31 y(2,1,1) - u(1,2,1) >= -0
MCLin5(1,2,1):  -44 y(2,1,1) + v(1,2,1) - u(1,2,1) >= -44
MCLin6(2,1,1):  u(2,1,1) >= -0
MCLin7(2,1,1):  -40 y(1,2,1) - u(2,1,1) <= -0
MCLin8(2,1,1):  35 y(1,2,1) + v(2,1,1) - u(2,1,1) <= 35
MCLin9(2,1,1):  35 y(1,2,1) - u(2,1,1) >= -0
MCLin10(2,1,1):  -40 y(1,2,1) + v(2,1,1) - u(2,1,1) >= -40
MCLinV(1,2,2):  x(1,2) - v(1,2,2) - x(2,2) = 4
MCLinV(2,1,2):  - x(1,2) - v(2,1,2) + x(2,2) = 9
MCLin1(1,2,2):  u(1,2,2) >= -0
MCLin2(1,2,2):  -47 y(2,1,2) - u(1,2,2) <= -0
MCLin3(1,2,2):  28 y(2,1,2) + v(1,2,2) - u(1,2,2) <= 28
MCLin4(1,2,2):  28 y(2,1,2) - u(1,2,2) >= -0
MCLin5(1,2,2):  -47 y(2,1,2) + v(1,2,2) - u(1,2,2) >= -47
MCLin6(2,1,2):  u(2,1,2) >= -0
MCLin7(2,1,2):  -41 y(1,2,2) - u(2,1,2) <= -0
MCLin8(2,1,2):  34 y(1,2,2) + v(2,1,2) - u(2,1,2) <= 34
MCLin9(2,1,2):  34 y(1,2,2) - u(2,1,2) >= -0
MCLin10(2,1,2):  -41 y(1,2,2) + v(2,1,2) - u(2,1,2) >= -41
makespan(0):  C - x(0,0) >= 4
makespan(1):  C - x(1,1) >= 3
makespan(2):  C - x(2,1) >= 6
cut_clique_0(012,0):  0.10000 x(1,0) + x(2,0) >= 1
cut_clique_0(012,1):  0.02431 x(0,1) + 0.01736 x(1,1) + 0.02431 x(2,1) >= 1
cut_clique_0(012,2):  0.08889 x(0,2) + 0.11111 x(1,2) >= 1
cut_clique_1(012,1):  0.02381 x(0,1) + 0.01378 x(1,1) + 0.02757 x(2,1) >= 1
cut_clique_1(012,2):  0.04586 x(0,2) + 0.04938 x(1,2) + 0.03086 x(2,2) >= 1
cut_clique_0:  0.00929 x(0,1) + 0.00964 x(1,1) + 0.03373 x(2,1) + 0.01693 x(0,2) + 0.00867 x(1,2) >= 1
cut_clique_1:  0.70482 x(2,0) + 0.05422 x(1,2) + 0.02410 x(2,2) >= 1
cut_clique_2:  0.07831 x(2,0) + 0.04475 x(0,2) + 0.05422 x(1,2) + 0.02410 x(2,2) >= 1
cut_clique_3:  0.31036 x(2,0) + 0.00806 x(0,1) + 0.00418 x(1,1) + 0.03342 x(2,1) + 0.01880 x(1,2) >= 1
cut_clique_4:  0.05640 x(2,0) + 0.00806 x(0,1) + 0.00418 x(1,1) + 0.03342 x(2,1) + 0.01814 x(0,2) + 0.01880 x(1,2) >= 1
cut_clique_5:  0.01052 x(2,0) + 0.00902 x(0,1) + 0.00935 x(1,1) + 0.03273 x(2,1) + 0.01763 x(0,2) + 0.01052 x(1,2) >= 1
Bounds
 0 <= C <= 54
 17 <= x(0,0) <= 50
 0 <= y(0,1,0) <= 1
 0 <= y(1,0,0) <= 1
 -25 <= v(0,1,0) <= 49
 -54 <= v(1,0,0) <= 20
 -540 <= u(0,1,0)
 -540 <= u(1,0,0)
 0 <= y(0,2,0) <= 1
 0 <= y(2,0,0) <= 1
 -27 <= v(0,2,0) <= 40
 -54 <= v(2,0,0) <= 13
 -540 <= u(0,2,0)
 -540 <= u(2,0,0)
 0 <= x(1,0) <= 41
 0 <= y(1,2,0) <= 1
 0 <= y(2,1,0) <= 1
 -44 <= v(1,2,0) <= 31
 -42 <= v(2,1,0) <= 33
 -540 <= u(1,2,0)
 -540 <= u(2,1,0)
 0 <= x(2,0) <= 34
 9 <= x(0,1) <= 42
 0 <= y(0,1,1) <= 1
 0 <= y(1,0,1) <= 1
 -45 <= v(0,1,1) <= 29
 -40 <= v(1,0,1) <= 34
 -540 <= u(0,1,1)
 -540 <= u(1,0,1)
 0 <= y(0,2,1) <= 1
 0 <= y(2,0,1) <= 1
 -45 <= v(0,2,1) <= 22
 -36 <= v(2,0,1) <= 31
 -540 <= u(0,2,1)
 -540 <= u(2,0,1)
 10 <= x(1,1) <= 51
 0 <= y(1,2,1) <= 1
 0 <= y(2,1,1) <= 1
 -44 <= v(1,2,1) <= 31
 -40 <= v(2,1,1) <= 35
 -540 <= u(1,2,1)
 -540 <= u(2,1,1)
 14 <= x(2,1) <= 48
 0 <= x(0,2) <= 33
 0 <= y(0,1,2) <= 1
 0 <= y(1,0,2) <= 1
 -51 <= v(0,1,2) <= 23
 -41 <= v(1,0,2) <= 33
 -540 <= u(0,1,2)
 -540 <= u(1,0,2)
 0 <= y(0,2,2) <= 1
 0 <= y(2,0,2) <= 1
 -48 <= v(0,2,2) <= 19
 -32 <= v(2,0,2) <= 35
 -540 <= u(0,2,2)
 -540 <= u(2,0,2)
 1 <= x(1,2) <= 42
 0 <= y(1,2,2) <= 1
 0 <= y(2,1,2) <= 1
 -47 <= v(1,2,2) <= 28
 -41 <= v(2,1,2) <= 34
 -540 <= u(1,2,2)
 -540 <= u(2,1,2)
 10 <= x(2,2) <= 44
Integers
C x(0,0) y(0,1,0) y(1,0,0) v(0,1,0) v(1,0,0) u(0,1,0) u(1,0,0) y(0,2,0) y(2,0,0) 
v(0,2,0) v(2,0,0) u(0,2,0) u(2,0,0) x(1,0) y(1,2,0) y(2,1,0) v(1,2,0) v(2,1,0) u(1,2,0) 
u(2,1,0) x(2,0) x(0,1) y(0,1,1) y(1,0,1) v(0,1,1) v(1,0,1) u(0,1,1) u(1,0,1) y(0,2,1) 
y(2,0,1) v(0,2,1) v(2,0,1) u(0,2,1) u(2,0,1) x(1,1) y(1,2,1) y(2,1,1) v(1,2,1) v(2,1,1) 
u(1,2,1) u(2,1,1) x(2,1) x(0,2) y(0,1,2) y(1,0,2) v(0,1,2) v(1,0,2) u(0,1,2) u(1,0,2) 
y(0,2,2) y(2,0,2) v(0,2,2) v(2,0,2) u(0,2,2) u(2,0,2) x(1,2) y(1,2,2) y(2,1,2) v(1,2,2) 
v(2,1,2) u(1,2,2) u(2,1,2) x(2,2) 
End
